\ Model Roadef challenge compact model with only x variable .......
\ LP format - for model browsing. Use MPS format to capture full model detail.
Minimize
  0.5 obj1 + 0.5 obj2
Subject To
 R0: x[0,0] = 1
 R1: x[1,0] + x[1,1] + x[1,2] = 1
 R2: x[2,0] + x[2,1] = 1
 R3: x[0,1] = 0
 R4: x[0,2] = 0
 R5: x[2,2] = 0
 R6: 3 x[0,0] <= 3
 R7: x[1,0] <= 3
 R8: 2 x[1,1] <= 3
 R9: 3 x[1,2] <= 3
 R10: x[2,0] <= 3
 R11: 2 x[2,1] <= 3
 R12: x[0,0] <= 1
 R13: x[1,0] <= 3
 R14: 2 x[1,1] <= 3
 R15: 3 x[1,2] <= 3
 R16: x[2,0] <= 2
 R17: 2 x[2,1] <= 2
 R18: x[1,0] + x[2,0] <= 1
 R19: x[1,1] + x[2,1] <= 1
 R20: x[1,2] + x[2,2] <= 1
 R21: 31 x[0,0] + 14 x[1,0] + 5 x[2,0] >= 10
 R22: 14 x[1,1] + 5 x[2,1] >= 0
 R23: 8 x[0,0] + 14 x[1,2] >= 6
 R24: 31 x[0,0] + 14 x[1,0] + 5 x[2,0] <= 49
 R25: 14 x[1,1] + 5 x[2,1] <= 23
 R26: 8 x[0,0] + 14 x[1,2] <= 15
 R27: - 7 x[0,0] - 5 x[1,0] - 4 x[2,0] + g_s_t[0,0] = 0
 R28: - 4 x[0,0] - 4 x[1,0] - 8 x[2,0] + g_s_t[1,0] = 0
 R29: - 8 x[0,0] - 5 x[1,0] - 2 x[2,0] + g_s_t[2,0] = 0
 R30: - x[0,0] - 5 x[1,1] - 3 x[2,1] + g_s_t[0,1] = 0
 R31: - 10 x[0,0] - 4 x[1,1] - 8 x[2,1] + g_s_t[1,1] = 0
 R32: - 10 x[0,0] - 5 x[1,1] - x[2,1] + g_s_t[2,1] = 0
 R33: - x[0,0] - 5 x[1,2] + g_s_t[0,2] = 0
 R34: - 4 x[0,0] - 4 x[1,2] + g_s_t[1,2] = 0
 R35: - 4 x[0,0] - 5 x[1,2] + g_s_t[2,2] = 0
 R36: - 0.3333333333333333 g_s_t[0,0] - 0.3333333333333333 g_s_t[1,0]
   - 0.3333333333333333 g_s_t[2,0] + g_t_bar[0] = 0
 R37: - 0.3333333333333333 g_s_t[0,1] - 0.3333333333333333 g_s_t[1,1]
   - 0.3333333333333333 g_s_t[2,1] + g_t_bar[1] = 0
 R38: - 0.3333333333333333 g_s_t[0,2] - 0.3333333333333333 g_s_t[1,2]
   - 0.3333333333333333 g_s_t[2,2] + g_t_bar[2] = 0
 R39: y[0,0] + y[1,0] + y[2,0] >= 1.5
 R40: y[0,1] + y[1,1] + y[2,1] >= 1.5
 R41: y[0,2] + y[1,2] + y[2,2] >= 1.5
 R42: y[0,0] + y[1,0] + y[2,0] <= 2.5
 R43: y[0,1] + y[1,1] + y[2,1] <= 2.5
 R44: y[0,2] + y[1,2] + y[2,2] <= 2.5
 R45: g_t_bar[0] - q_t[0] + excess[0] >= 0
 R46: g_t_bar[1] - q_t[1] + excess[1] >= 0
 R47: g_t_bar[2] - q_t[2] + excess[2] >= 0
 R48: excess[0] >= 0
 R49: excess[1] >= 0
 R50: excess[2] >= 0
 R51: - 0.3333333333333333 g_t_bar[0] - 0.3333333333333333 g_t_bar[1]
   - 0.3333333333333333 g_t_bar[2] + obj1 = 0
 R52: - 0.3333333333333333 excess[0] - 0.3333333333333333 excess[1]
   - 0.3333333333333333 excess[2] + obj2 = 0
 qc0: q_t[0] + [ - y[0,0] * g_s_t[0,0] ] >= 0
 qc1: q_t[0] + [ - y[1,0] * g_s_t[1,0] ] >= 0
 qc2: q_t[0] + [ - y[2,0] * g_s_t[2,0] ] >= 0
 qc3: q_t[1] + [ - y[0,1] * g_s_t[0,1] ] >= 0
 qc4: q_t[1] + [ - y[1,1] * g_s_t[1,1] ] >= 0
 qc5: q_t[1] + [ - y[2,1] * g_s_t[2,1] ] >= 0
 qc6: q_t[2] + [ - y[0,2] * g_s_t[0,2] ] >= 0
 qc7: q_t[2] + [ - y[1,2] * g_s_t[1,2] ] >= 0
 qc8: q_t[2] + [ - y[2,2] * g_s_t[2,2] ] >= 0
Bounds
Binaries
 x[0,0] x[0,1] x[0,2] x[1,0] x[1,1] x[1,2] x[2,0] x[2,1] x[2,2] y[0,0]
 y[0,1] y[0,2] y[1,0] y[1,1] y[1,2] y[2,0] y[2,1] y[2,2]
End
